coarse_kmesh for BN/gr
30 
Line-mode
reciprocal
   0.0000000000   0.0000000000   0.0000000000   ! \Gamma
   0.3333333333   0.3333333333   0.0000000000   ! K
 
   0.3333333333   0.3333333333   0.0000000000   ! K
   0.5000000000   0.0000000000   0.0000000000   ! M
 
   0.5000000000   0.0000000000   0.0000000000   ! M
   0.0000000000   0.0000000000   0.0000000000   ! \Gamma

