B67 C134 N67                            
   1.00000000000000     
    20.1932599999999987    0.0000000000000000    0.0000000000000000
   -10.0966299999999993   17.4878760000000000    0.0000000000000000
     0.0000000000000000    0.0000000000000000   21.0000000000000000
   N    B    C 
    67    67   134
Direct
  0.0945182727810084  0.5920514444655464  0.5000176359617521
  0.1243982126683804  0.7263712062329576  0.5000169363074803
  0.1542151690518803  0.8606849366211826  0.4999923247437932
  0.1840773689939506  0.9950202816077458  0.5000458374022109
  0.0796051708083821  0.0248971346669204  0.5000066239071964
  0.1094549048961928  0.1592085129495009  0.5000342032615392
  0.1393150633788174  0.2935302324306977  0.4999923247437932
  0.1691327841764737  0.4278483345482623  0.5000208206923193
  0.1990131148569599  0.5621857616459501  0.5000353147102110
  0.2288474430737012  0.6965030168626701  0.5000304451624411
  0.2587145503717840  0.8308672158235263  0.5000208206923193
  0.2885530594622546  0.9651810090566790  0.5000332912314576
  0.2139263768320740  0.1293392124181432  0.5000236776455191
  0.2437830312001821  0.2636866553937504  0.5000319686054853
  0.2736287937670424  0.3980270064354227  0.5000169363074803
  0.3034969831373298  0.5323434262110336  0.5000304451624411
  0.3333330000000032  0.6666669999999968  0.4999868237818260
  0.3631726467889832  0.8009868851430401  0.5000353147102110
  0.3930400770406207  0.9353113516588185  0.5000190430316387
  0.3184289027049833  0.0995091313202135  0.5000016425080600
  0.3482382631848769  0.2338218542721480  0.5000027069425522
  0.3781180689338752  0.3681540850480870  0.5000389163509454
  0.4079485555344536  0.5024678283154596  0.5000176359617521
  0.4378142383540569  0.6368273532110168  0.5000353147102110
  0.4676565737889664  0.7711525569262988  0.5000304451624411
  0.4975321716845404  0.9054817272189916  0.5000176359617521
  0.4228756453974831  0.0696412128257305  0.5000309187553448
  0.4527407334569957  0.2039986780959762  0.5000254357083973
  0.4825907877008176  0.3383126465391239  0.5000389881886016
  0.5124500890541357  0.4726470222591388  0.4999923523081707
  0.5422722746181953  0.6069599229593794  0.5000190430316387
  0.5721516654517378  0.7412854496282161  0.5000208206923193
  0.6019729935645772  0.8756017873316196  0.5000169363074803
  0.6318459149519130  0.0099639838857882  0.5000389163509454
  0.5273529777408612  0.0398030667949898  0.4999923523081707
  0.5572168745079884  0.1741245469166600  0.5000381856565459
  0.5870604593816743  0.3084383508907956  0.5000064026786312
  0.6169076724086716  0.4427831254920116  0.5000381856565459
  0.6467655674282474  0.5771243546025169  0.5000309187553448
  0.6766279495944245  0.7114469405377453  0.5000332912314576
  0.7064697675693022  0.8457848309481197  0.4999923247437932
  0.7363133446062496  0.9800973758064363  0.5000319686054853
  0.6616873534608760  0.1442781411616866  0.5000389881886016
  0.6915616491092045  0.2786221084908788  0.5000064026786312
  0.7213778915091213  0.4129395406183257  0.5000064026786312
  0.7512579446389804  0.5472592665430043  0.5000254357083973
  0.7810812286152276  0.6815710972950166  0.5000016425080600
  0.8109429126137953  0.8159226310060494  0.5000458374022109
  0.8407914870504991  0.9502463919466919  0.5000342032615392
  0.7661781457278520  0.1144164089127289  0.5000027069425522
  0.7960013219040238  0.2487420553610195  0.5000254357083973
  0.8258754530833400  0.3830923275913284  0.5000381856565459
  0.8557218588383134  0.5174092122991826  0.5000389881886016
  0.8855835910872711  0.6517617368151231  0.5000027069425522
  0.9154128355860620  0.7860736231679260  0.5000236776455191
  0.9452919638585383  0.9203948291916180  0.5000066239071964
  0.8706607875818568  0.0845871644139380  0.5000236776455191
  0.9004908686797866  0.2189187713847724  0.5000016425080600
  0.9303587871742696  0.3532344325717526  0.5000309187553448
  0.9601969332050102  0.4875499109458644  0.4999923523081707
  0.9900360161142118  0.6218819310661248  0.5000389163509454
  0.0199026241935637  0.7562169687998179  0.5000319686054853
  0.0497536080533081  0.8905450951038072  0.5000342032615392
  0.9751028653330797  0.0547080361414618  0.5000066239071964
  0.0049797183922542  0.1890570873862048  0.5000458374022109
  0.0348189909433210  0.3233720504055756  0.5000332912314576
  0.0646886483411815  0.4577277253818046  0.5000190430316387
  0.0696493893207946  0.6467685199536155  0.4999983256925849
  0.0995014395204275  0.7810908772370447  0.4999813064204376
  0.1293517996822908  0.9154220146240523  0.4999925872303272
  0.1592036016996909  0.0497496708792013  0.4999945417975107
  0.0547245131833787  0.0796062784111963  0.4999871798052656
  0.0845779853759478  0.2139297850582315  0.4999925872303272
  0.1144236054502518  0.3482540969722102  0.4999850548835871
  0.1442795352569972  0.4825883342107107  0.4999914121519399
  0.1741273207223776  0.6169128122780527  0.5000082824307310
  0.2039860038779102  0.7512455629592866  0.4999998061771448
  0.2338304915219583  0.8855763945497482  0.4999850548835871
  0.2636824182786052  0.0199013181440968  0.5000012503629179
  0.1890550412856953  0.1840787479687212  0.5000152967060154
  0.2189091227629552  0.3184115622833802  0.4999813064204376
  0.2487544370407135  0.4527404409186237  0.4999998061771448
  0.2786089183055975  0.5870627656784714  0.4999850227371377
  0.3084538473728738  0.7213910816944025  0.4999850227371377
  0.3383087989537063  0.8557204647430028  0.4999914121519399
  0.3681566871707795  0.9900458258612842  0.5000106627013012
  0.2935298347996838  0.1542250712151275  0.4999762462615769
  0.3233817668111339  0.2885579946519442  0.4999910474711745
  0.3532314800463845  0.4228808693671791  0.4999983256925849
  0.3830871877219472  0.5572145084443249  0.5000082824307310
  0.4129372343215286  0.6915461526271262  0.4999850227371377
  0.4427854915556752  0.8258726792776224  0.5000082824307310
  0.4726381346634729  0.9601974019597015  0.4999760100622706
  0.3980156136590451  0.1243812295228641  0.4999900368372078
  0.4278599430064707  0.2587101536646066  0.4999987635365870
  0.4577137831544948  0.3930352687064906  0.4999958910477916
  0.4875592672962215  0.5273618653365272  0.4999760100622706
  0.5174116657892894  0.6616912010462936  0.4999914121519399
  0.5472595590813762  0.7960139961220898  0.4999998061771448
  0.5771191306328209  0.9303506106792054  0.4999983256925849
  0.6069647312935095  0.0646795144480017  0.4999958910477916
  0.5024850622422252  0.0945272606099113  0.4999874763440600
  0.5323368866818550  0.2288519980268426  0.4999916076836201
  0.5621877299803848  0.3631815251284333  0.5000078798674024
  0.5920431983676836  0.4975149377577749  0.4999874763440600
  0.6218891386905047  0.6318433128292205  0.5000106627013012
  0.6517459030277899  0.7661695084780417  0.4999850548835871
  0.6815884377166198  0.9004985604795726  0.4999813064204376
  0.7114420053480559  0.0348237721591897  0.4999910474711745
  0.6368184748715666  0.1990062048519443  0.5000078798674024
  0.6666669999999968  0.3333330000000032  0.4999719108952704
  0.6965141113449902  0.4676631133181450  0.4999916076836201
  0.7263656158638190  0.6019843863409549  0.4999900368372078
  0.7562198998654961  0.7363175817213948  0.5000012503629179
  0.7860702149417684  0.8706482003177092  0.4999925872303272
  0.8159212520312789  0.0049762933169741  0.5000152967060154
  0.7412898463353933  0.1691487893418596  0.4999987635365870
  0.7711480019731574  0.3034858886550099  0.4999916076836201
  0.8009937951480557  0.4378122700196224  0.5000078798674024
  0.8308512106581405  0.5721400569935293  0.4999987635365870
  0.8606952364154438  0.7064701652003164  0.4999762462615769
  0.8905460691795104  0.8407963983003091  0.4999945417975107
  0.9203937215888036  0.9751182347721825  0.4999871798052656
  0.8457749287848726  0.1393047635845563  0.4999762462615769
  0.8756187704771359  0.2736343841361811  0.4999900368372078
  0.9054727393900887  0.4079568016323163  0.4999874763440600
  0.9353204855519982  0.5422862168455053  0.4999958910477916
  0.9651762278408103  0.6766182331888662  0.4999910474711745
  0.9950237066830260  0.8109449587143048  0.5000152967060154
  0.0248817652278175  0.9452754868166212  0.4999871798052656
  0.9502503291207988  0.1094539308204896  0.4999945417975107
  0.9800986818559032  0.2437801001345038  0.5000012503629179
  0.0099541741387158  0.3781108613094953  0.5000106627013012
  0.0398025980402986  0.5124407327037785  0.4999760100622706
  0.0298373087447240  0.8955191395735281  0.3333163903354234
  0.0597105939391738  0.7910605670528692  0.3333266755688798
  0.1641834529973757  0.9253746107873047  0.3333301928080669
  0.0895455155139695  0.6865562050511504  0.3333215463322546
  0.1940235950866778  0.8208896532739570  0.3333378060615375
  0.2985148814767765  0.9552206139364737  0.3333121823431062
  0.0149114190553491  0.4477536592053952  0.3333322259802630
  0.1194136092368413  0.5820869441901912  0.3333202322416066
  0.2238746406346002  0.7164244471848585  0.3333146642129909
  0.3283602220841602  0.8507475998283232  0.3333254214205377
  0.4328422401500461  0.9850885809446509  0.3333322259802630
  0.0447793860635262  0.3432952675403000  0.3333121823431062
  0.1492524001716769  0.4776126222558371  0.3333254214205377
  0.2537347456081919  0.6119501301475536  0.3333333067185367
  0.3582153845393687  0.7462652543918081  0.3333333067185367
  0.4626733349533499  0.8805863907631587  0.3333202322416066
  0.0746253892126954  0.2388088422100711  0.3333301928080669
  0.1791103467260430  0.3731339418127207  0.3333378060615375
  0.2835755528151415  0.5074501934497416  0.3333146642129909
  0.3880498698524465  0.6417846154606314  0.3333333067185367
  0.4925498065502583  0.7761253593653997  0.3333146642129909
  0.5970106895371809  0.9104544844860305  0.3333215463322546
  0.0000000000000000 -0.0000000000000000  0.3333401863882876
  0.1044808604264719  0.1343171691711913  0.3333163903354234
  0.2089394329471307  0.2686510268863019  0.3333266755688798
  0.3134437949488495  0.4029893104628191  0.3333215463322546
  0.4179130558098088  0.5373266650466501  0.3333202322416066
  0.5223873777441630  0.6716397779158397  0.3333254214205377
  0.6268660581872793  0.8059764049133222  0.3333378060615375
  0.7313489731136980  0.9402894060608262  0.3333266755688798
  0.1343319694373650  0.0298515772854756  0.3333255616572041
  0.2388144690586742  0.1641957424046032  0.3333225529726381
  0.3432849966023752  0.2985055048743081  0.3333262809034179
  0.4477550239180861  0.4328361098357431  0.3333343896608013
  0.5522463407946049  0.5671577598499539  0.3333322259802630
  0.6567047324597000  0.7014851185232236  0.3333121823431062
  0.7611911577899289  0.8358165470026242  0.3333301928080669
  0.8656828308288088  0.9701626912552760  0.3333163903354234
  0.2686476143856452  0.0596950966303054  0.3333273819249999
  0.3731367358928736  0.1940242830548199  0.3333371839045725
  0.4776112116353096  0.3283526572045008  0.3333081170977695
  0.5820798546978190  0.4626833452255638  0.3333278032893886
  0.6865786450338582  0.5970259234196517  0.3333217364076551
  0.7910484822446576  0.7313523856143548  0.3333273819249999
  0.8955186078481060  0.8656680305626350  0.3333255616572041
  0.4029740765803482  0.0895527216142065  0.3333217364076551
  0.5074695485810777  0.2238867569899668  0.3333242389665734
  0.6119468305858291  0.3582222895565580  0.3333295650735338
  0.7164172084088890  0.4925304514189222  0.3333242389665734
  0.8208875471619463  0.6268632641071264  0.3333371839045725
  0.9253812733459289  0.7611855309413258  0.3333225529726381
  0.5373166547744361  0.1193965094722551  0.3333278032893886
  0.6417777104434420  0.2537245410292782  0.3333295650735338
  0.7462754589707218  0.3880531694141709  0.3333295650735338
  0.8507414455691912  0.5223887883646905  0.3333081170977695
  0.9552215082719303  0.6567150033976248  0.3333262809034179
  0.5671638901642569  0.0149189140823431  0.3333343896608013
  0.6716473427954992  0.1492585544308088  0.3333081170977695
  0.7761132430100331  0.2835827915911110  0.3333242389665734
  0.8806034905277449  0.4179201453021811  0.3333278032893886
  0.9850810859176570  0.5522449760819139  0.3333343896608013
  0.7014944951256920  0.0447784917280697  0.3333262809034179
  0.8059757169451800  0.1791124528380537  0.3333371839045725
  0.9104472783857936  0.3134213549661418  0.3333217364076551
  0.8358042575953968  0.0746187266540710  0.3333225529726381
  0.9403049033696946  0.2089515177553423  0.3333273819249999
  0.9701484227145244  0.1044813921518940  0.3333255616572041
  0.0845849287147466  0.8706468080388053  0.3333294195026321
  0.1144233437586832  0.7661766807787111  0.3333329511290921
  0.2189093926693603  0.9004974643511692  0.3333361979400546
  0.1442793283348319  0.6616935566635618  0.3333284633137383
  0.2487534272627240  0.7960072170849340  0.3333183593194292
  0.3532225096431832  0.9303455706505376  0.3333210334486660
  0.0696544293494624  0.4228769389926456  0.3333210334486660
  0.1741180237390160  0.5572099677878383  0.3333111727392121
  0.2786143820647193  0.6915459601585696  0.3333348045568261
  0.3830919440488222  0.8258819762609839  0.3333111727392121
  0.4875587990304198  0.9602003665922219  0.3333400299993535
  0.0995025356488308  0.3184129283181885  0.3333361979400546
  0.2039927829150660  0.4527462101777900  0.3333183593194292
  0.3084540398414303  0.5870684219061496  0.3333348045568261
  0.4129315780938504  0.7213856179352808  0.3333348045568261
  0.5174142283287229  0.8557206716651681  0.3333284633137383
  0.1293531919611946  0.2139381206759341  0.3333294195026321
  0.2338233192212889  0.3482466629799720  0.3333329511290921
  0.3383064433364382  0.4825857716712772  0.3333284633137383
  0.4427900322121618  0.6169080559511778  0.3333111727392121
  0.5472537898222101  0.7512465727372760  0.3333183593194292
  0.6517533370200279  0.8855766562413168  0.3333329511290921
  0.0547193977721499  0.9751122572522346  0.3333300025112068
  0.1591958620784948  0.1094481070012621  0.3333259048296633
  0.2636910896469915  0.2437769779519340  0.3333207582224998
  0.3681525974252705  0.3781146174905989  0.3333076251345624
  0.4726415675617949  0.5124412009695801  0.3333400299993535
  0.5771230610073544  0.6467774903568169  0.3333210334486660
  0.6815870716818115  0.7810906073306398  0.3333361979400546
  0.7860618793240659  0.9154150712852533  0.3333294195026321
  0.1890566325731961  0.0049809623156854  0.3333024084234208
  0.2935304438867418  0.1393083360073641  0.3333393786158544
  0.3980191154809745  0.2736382120659400  0.3333281644137275
  0.5024862865014239  0.4079589845823495  0.3333323937795229
  0.6069540779997172  0.5422764260259137  0.3333260633279562
  0.7114439489990060  0.6766155977406206  0.3333292118740246
  0.8159243297424892  0.8109433674268037  0.3333024084234208
  0.9203928594800846  0.9452806022278500  0.3333300025112068
  0.3233844022593793  0.0348283512583853  0.3333292118740246
  0.4278515993770219  0.1691388470336153  0.3333204980313615
  0.5323324997377269  0.3034820300990532  0.3333276210259505
  0.6368278017996661  0.4378110609362927  0.3333127881461981
  0.7412882476565980  0.5721484006229780  0.3333204980313615
  0.8457778921206223  0.7064695561132580  0.3333393786158544
  0.9502522449227673  0.8408041379215051  0.3333259048296633
  0.4577235739740861  0.0646786519738009  0.3333260633279562
  0.5621889390637145  0.1990167408633734  0.3333127881461981
  0.6666669999999968  0.3333330000000032  0.3333428805282596
  0.7711485303613287  0.4676675002622731  0.3333276210259505
  0.8756190965849657  0.6019808845190255  0.3333281644137275
  0.9800868883049473  0.7363089103530087  0.3333207582224998
  0.5920410154176505  0.0945263019190770  0.3333323937795229
  0.6965179699009468  0.2288514696386713  0.3333276210259505
  0.8009832591366265  0.3631721982003339  0.3333127881461981
  0.9054736980809230  0.4975137134985760  0.3333323937795229
  0.0099620200653285  0.6318474025747296  0.3333076251345624
  0.6218853825094011  0.9900379799346715  0.3333076251345624
  0.7263617879340599  0.1243809034150344  0.3333281644137275
  0.8308611529663846  0.2587117523434022  0.3333204980313615
  0.9353213480261992  0.3930459220002828  0.3333260633279562
  0.0397996334077782  0.5273584324382051  0.3333400299993535
  0.7562230220480660  0.0199131116950528  0.3333207582224998
  0.8606916639926359  0.1542221078793778  0.3333393786158544
  0.9651716487416147  0.2885560510009941  0.3333292118740246
  0.8905518929987378  0.0497477550772327  0.3333259048296633
  0.9950190376843147  0.1840756702575108  0.3333024084234208
  0.0248877427477653  0.0796071405199153  0.3333300025112068
 
  0.00000000E+00  0.00000000E+00  0.00000000E+00
  0.00000000E+00  0.00000000E+00  0.00000000E+00
  0.00000000E+00  0.00000000E+00  0.00000000E+00
  0.00000000E+00  0.00000000E+00  0.00000000E+00
  0.00000000E+00  0.00000000E+00  0.00000000E+00
  0.00000000E+00  0.00000000E+00  0.00000000E+00
  0.00000000E+00  0.00000000E+00  0.00000000E+00
  0.00000000E+00  0.00000000E+00  0.00000000E+00
  0.00000000E+00  0.00000000E+00  0.00000000E+00
  0.00000000E+00  0.00000000E+00  0.00000000E+00
  0.00000000E+00  0.00000000E+00  0.00000000E+00
  0.00000000E+00  0.00000000E+00  0.00000000E+00
  0.00000000E+00  0.00000000E+00  0.00000000E+00
  0.00000000E+00  0.00000000E+00  0.00000000E+00
  0.00000000E+00  0.00000000E+00  0.00000000E+00
  0.00000000E+00  0.00000000E+00  0.00000000E+00
  0.00000000E+00  0.00000000E+00  0.00000000E+00
  0.00000000E+00  0.00000000E+00  0.00000000E+00
  0.00000000E+00  0.00000000E+00  0.00000000E+00
  0.00000000E+00  0.00000000E+00  0.00000000E+00
  0.00000000E+00  0.00000000E+00  0.00000000E+00
  0.00000000E+00  0.00000000E+00  0.00000000E+00
  0.00000000E+00  0.00000000E+00  0.00000000E+00
  0.00000000E+00  0.00000000E+00  0.00000000E+00
  0.00000000E+00  0.00000000E+00  0.00000000E+00
  0.00000000E+00  0.00000000E+00  0.00000000E+00
  0.00000000E+00  0.00000000E+00  0.00000000E+00
  0.00000000E+00  0.00000000E+00  0.00000000E+00
  0.00000000E+00  0.00000000E+00  0.00000000E+00
  0.00000000E+00  0.00000000E+00  0.00000000E+00
  0.00000000E+00  0.00000000E+00  0.00000000E+00
  0.00000000E+00  0.00000000E+00  0.00000000E+00
  0.00000000E+00  0.00000000E+00  0.00000000E+00
  0.00000000E+00  0.00000000E+00  0.00000000E+00
  0.00000000E+00  0.00000000E+00  0.00000000E+00
  0.00000000E+00  0.00000000E+00  0.00000000E+00
  0.00000000E+00  0.00000000E+00  0.00000000E+00
  0.00000000E+00  0.00000000E+00  0.00000000E+00
  0.00000000E+00  0.00000000E+00  0.00000000E+00
  0.00000000E+00  0.00000000E+00  0.00000000E+00
  0.00000000E+00  0.00000000E+00  0.00000000E+00
  0.00000000E+00  0.00000000E+00  0.00000000E+00
  0.00000000E+00  0.00000000E+00  0.00000000E+00
  0.00000000E+00  0.00000000E+00  0.00000000E+00
  0.00000000E+00  0.00000000E+00  0.00000000E+00
  0.00000000E+00  0.00000000E+00  0.00000000E+00
  0.00000000E+00  0.00000000E+00  0.00000000E+00
  0.00000000E+00  0.00000000E+00  0.00000000E+00
  0.00000000E+00  0.00000000E+00  0.00000000E+00
  0.00000000E+00  0.00000000E+00  0.00000000E+00
  0.00000000E+00  0.00000000E+00  0.00000000E+00
  0.00000000E+00  0.00000000E+00  0.00000000E+00
  0.00000000E+00  0.00000000E+00  0.00000000E+00
  0.00000000E+00  0.00000000E+00  0.00000000E+00
  0.00000000E+00  0.00000000E+00  0.00000000E+00
  0.00000000E+00  0.00000000E+00  0.00000000E+00
  0.00000000E+00  0.00000000E+00  0.00000000E+00
  0.00000000E+00  0.00000000E+00  0.00000000E+00
  0.00000000E+00  0.00000000E+00  0.00000000E+00
  0.00000000E+00  0.00000000E+00  0.00000000E+00
  0.00000000E+00  0.00000000E+00  0.00000000E+00
  0.00000000E+00  0.00000000E+00  0.00000000E+00
  0.00000000E+00  0.00000000E+00  0.00000000E+00
  0.00000000E+00  0.00000000E+00  0.00000000E+00
  0.00000000E+00  0.00000000E+00  0.00000000E+00
  0.00000000E+00  0.00000000E+00  0.00000000E+00
  0.00000000E+00  0.00000000E+00  0.00000000E+00
  0.00000000E+00  0.00000000E+00  0.00000000E+00
  0.00000000E+00  0.00000000E+00  0.00000000E+00
  0.00000000E+00  0.00000000E+00  0.00000000E+00
  0.00000000E+00  0.00000000E+00  0.00000000E+00
  0.00000000E+00  0.00000000E+00  0.00000000E+00
  0.00000000E+00  0.00000000E+00  0.00000000E+00
  0.00000000E+00  0.00000000E+00  0.00000000E+00
  0.00000000E+00  0.00000000E+00  0.00000000E+00
  0.00000000E+00  0.00000000E+00  0.00000000E+00
  0.00000000E+00  0.00000000E+00  0.00000000E+00
  0.00000000E+00  0.00000000E+00  0.00000000E+00
  0.00000000E+00  0.00000000E+00  0.00000000E+00
  0.00000000E+00  0.00000000E+00  0.00000000E+00
  0.00000000E+00  0.00000000E+00  0.00000000E+00
  0.00000000E+00  0.00000000E+00  0.00000000E+00
  0.00000000E+00  0.00000000E+00  0.00000000E+00
  0.00000000E+00  0.00000000E+00  0.00000000E+00
  0.00000000E+00  0.00000000E+00  0.00000000E+00
  0.00000000E+00  0.00000000E+00  0.00000000E+00
  0.00000000E+00  0.00000000E+00  0.00000000E+00
  0.00000000E+00  0.00000000E+00  0.00000000E+00
  0.00000000E+00  0.00000000E+00  0.00000000E+00
  0.00000000E+00  0.00000000E+00  0.00000000E+00
  0.00000000E+00  0.00000000E+00  0.00000000E+00
  0.00000000E+00  0.00000000E+00  0.00000000E+00
  0.00000000E+00  0.00000000E+00  0.00000000E+00
  0.00000000E+00  0.00000000E+00  0.00000000E+00
  0.00000000E+00  0.00000000E+00  0.00000000E+00
  0.00000000E+00  0.00000000E+00  0.00000000E+00
  0.00000000E+00  0.00000000E+00  0.00000000E+00
  0.00000000E+00  0.00000000E+00  0.00000000E+00
  0.00000000E+00  0.00000000E+00  0.00000000E+00
  0.00000000E+00  0.00000000E+00  0.00000000E+00
  0.00000000E+00  0.00000000E+00  0.00000000E+00
  0.00000000E+00  0.00000000E+00  0.00000000E+00
  0.00000000E+00  0.00000000E+00  0.00000000E+00
  0.00000000E+00  0.00000000E+00  0.00000000E+00
  0.00000000E+00  0.00000000E+00  0.00000000E+00
  0.00000000E+00  0.00000000E+00  0.00000000E+00
  0.00000000E+00  0.00000000E+00  0.00000000E+00
  0.00000000E+00  0.00000000E+00  0.00000000E+00
  0.00000000E+00  0.00000000E+00  0.00000000E+00
  0.00000000E+00  0.00000000E+00  0.00000000E+00
  0.00000000E+00  0.00000000E+00  0.00000000E+00
  0.00000000E+00  0.00000000E+00  0.00000000E+00
  0.00000000E+00  0.00000000E+00  0.00000000E+00
  0.00000000E+00  0.00000000E+00  0.00000000E+00
  0.00000000E+00  0.00000000E+00  0.00000000E+00
  0.00000000E+00  0.00000000E+00  0.00000000E+00
  0.00000000E+00  0.00000000E+00  0.00000000E+00
  0.00000000E+00  0.00000000E+00  0.00000000E+00
  0.00000000E+00  0.00000000E+00  0.00000000E+00
  0.00000000E+00  0.00000000E+00  0.00000000E+00
  0.00000000E+00  0.00000000E+00  0.00000000E+00
  0.00000000E+00  0.00000000E+00  0.00000000E+00
  0.00000000E+00  0.00000000E+00  0.00000000E+00
  0.00000000E+00  0.00000000E+00  0.00000000E+00
  0.00000000E+00  0.00000000E+00  0.00000000E+00
  0.00000000E+00  0.00000000E+00  0.00000000E+00
  0.00000000E+00  0.00000000E+00  0.00000000E+00
  0.00000000E+00  0.00000000E+00  0.00000000E+00
  0.00000000E+00  0.00000000E+00  0.00000000E+00
  0.00000000E+00  0.00000000E+00  0.00000000E+00
  0.00000000E+00  0.00000000E+00  0.00000000E+00
  0.00000000E+00  0.00000000E+00  0.00000000E+00
  0.00000000E+00  0.00000000E+00  0.00000000E+00
  0.00000000E+00  0.00000000E+00  0.00000000E+00
  0.00000000E+00  0.00000000E+00  0.00000000E+00
  0.00000000E+00  0.00000000E+00  0.00000000E+00
  0.00000000E+00  0.00000000E+00  0.00000000E+00
  0.00000000E+00  0.00000000E+00  0.00000000E+00
  0.00000000E+00  0.00000000E+00  0.00000000E+00
  0.00000000E+00  0.00000000E+00  0.00000000E+00
  0.00000000E+00  0.00000000E+00  0.00000000E+00
  0.00000000E+00  0.00000000E+00  0.00000000E+00
  0.00000000E+00  0.00000000E+00  0.00000000E+00
  0.00000000E+00  0.00000000E+00  0.00000000E+00
  0.00000000E+00  0.00000000E+00  0.00000000E+00
  0.00000000E+00  0.00000000E+00  0.00000000E+00
  0.00000000E+00  0.00000000E+00  0.00000000E+00
  0.00000000E+00  0.00000000E+00  0.00000000E+00
  0.00000000E+00  0.00000000E+00  0.00000000E+00
  0.00000000E+00  0.00000000E+00  0.00000000E+00
  0.00000000E+00  0.00000000E+00  0.00000000E+00
  0.00000000E+00  0.00000000E+00  0.00000000E+00
  0.00000000E+00  0.00000000E+00  0.00000000E+00
  0.00000000E+00  0.00000000E+00  0.00000000E+00
  0.00000000E+00  0.00000000E+00  0.00000000E+00
  0.00000000E+00  0.00000000E+00  0.00000000E+00
  0.00000000E+00  0.00000000E+00  0.00000000E+00
  0.00000000E+00  0.00000000E+00  0.00000000E+00
  0.00000000E+00  0.00000000E+00  0.00000000E+00
  0.00000000E+00  0.00000000E+00  0.00000000E+00
  0.00000000E+00  0.00000000E+00  0.00000000E+00
  0.00000000E+00  0.00000000E+00  0.00000000E+00
  0.00000000E+00  0.00000000E+00  0.00000000E+00
  0.00000000E+00  0.00000000E+00  0.00000000E+00
  0.00000000E+00  0.00000000E+00  0.00000000E+00
  0.00000000E+00  0.00000000E+00  0.00000000E+00
  0.00000000E+00  0.00000000E+00  0.00000000E+00
  0.00000000E+00  0.00000000E+00  0.00000000E+00
  0.00000000E+00  0.00000000E+00  0.00000000E+00
  0.00000000E+00  0.00000000E+00  0.00000000E+00
  0.00000000E+00  0.00000000E+00  0.00000000E+00
  0.00000000E+00  0.00000000E+00  0.00000000E+00
  0.00000000E+00  0.00000000E+00  0.00000000E+00
  0.00000000E+00  0.00000000E+00  0.00000000E+00
  0.00000000E+00  0.00000000E+00  0.00000000E+00
  0.00000000E+00  0.00000000E+00  0.00000000E+00
  0.00000000E+00  0.00000000E+00  0.00000000E+00
  0.00000000E+00  0.00000000E+00  0.00000000E+00
  0.00000000E+00  0.00000000E+00  0.00000000E+00
  0.00000000E+00  0.00000000E+00  0.00000000E+00
  0.00000000E+00  0.00000000E+00  0.00000000E+00
  0.00000000E+00  0.00000000E+00  0.00000000E+00
  0.00000000E+00  0.00000000E+00  0.00000000E+00
  0.00000000E+00  0.00000000E+00  0.00000000E+00
  0.00000000E+00  0.00000000E+00  0.00000000E+00
  0.00000000E+00  0.00000000E+00  0.00000000E+00
  0.00000000E+00  0.00000000E+00  0.00000000E+00
  0.00000000E+00  0.00000000E+00  0.00000000E+00
  0.00000000E+00  0.00000000E+00  0.00000000E+00
  0.00000000E+00  0.00000000E+00  0.00000000E+00
  0.00000000E+00  0.00000000E+00  0.00000000E+00
  0.00000000E+00  0.00000000E+00  0.00000000E+00
  0.00000000E+00  0.00000000E+00  0.00000000E+00
  0.00000000E+00  0.00000000E+00  0.00000000E+00
  0.00000000E+00  0.00000000E+00  0.00000000E+00
  0.00000000E+00  0.00000000E+00  0.00000000E+00
  0.00000000E+00  0.00000000E+00  0.00000000E+00
  0.00000000E+00  0.00000000E+00  0.00000000E+00
  0.00000000E+00  0.00000000E+00  0.00000000E+00
  0.00000000E+00  0.00000000E+00  0.00000000E+00
  0.00000000E+00  0.00000000E+00  0.00000000E+00
  0.00000000E+00  0.00000000E+00  0.00000000E+00
  0.00000000E+00  0.00000000E+00  0.00000000E+00
  0.00000000E+00  0.00000000E+00  0.00000000E+00
  0.00000000E+00  0.00000000E+00  0.00000000E+00
  0.00000000E+00  0.00000000E+00  0.00000000E+00
  0.00000000E+00  0.00000000E+00  0.00000000E+00
  0.00000000E+00  0.00000000E+00  0.00000000E+00
  0.00000000E+00  0.00000000E+00  0.00000000E+00
  0.00000000E+00  0.00000000E+00  0.00000000E+00
  0.00000000E+00  0.00000000E+00  0.00000000E+00
  0.00000000E+00  0.00000000E+00  0.00000000E+00
  0.00000000E+00  0.00000000E+00  0.00000000E+00
  0.00000000E+00  0.00000000E+00  0.00000000E+00
  0.00000000E+00  0.00000000E+00  0.00000000E+00
  0.00000000E+00  0.00000000E+00  0.00000000E+00
  0.00000000E+00  0.00000000E+00  0.00000000E+00
  0.00000000E+00  0.00000000E+00  0.00000000E+00
  0.00000000E+00  0.00000000E+00  0.00000000E+00
  0.00000000E+00  0.00000000E+00  0.00000000E+00
  0.00000000E+00  0.00000000E+00  0.00000000E+00
  0.00000000E+00  0.00000000E+00  0.00000000E+00
  0.00000000E+00  0.00000000E+00  0.00000000E+00
  0.00000000E+00  0.00000000E+00  0.00000000E+00
  0.00000000E+00  0.00000000E+00  0.00000000E+00
  0.00000000E+00  0.00000000E+00  0.00000000E+00
  0.00000000E+00  0.00000000E+00  0.00000000E+00
  0.00000000E+00  0.00000000E+00  0.00000000E+00
  0.00000000E+00  0.00000000E+00  0.00000000E+00
  0.00000000E+00  0.00000000E+00  0.00000000E+00
  0.00000000E+00  0.00000000E+00  0.00000000E+00
  0.00000000E+00  0.00000000E+00  0.00000000E+00
  0.00000000E+00  0.00000000E+00  0.00000000E+00
  0.00000000E+00  0.00000000E+00  0.00000000E+00
  0.00000000E+00  0.00000000E+00  0.00000000E+00
  0.00000000E+00  0.00000000E+00  0.00000000E+00
  0.00000000E+00  0.00000000E+00  0.00000000E+00
  0.00000000E+00  0.00000000E+00  0.00000000E+00
  0.00000000E+00  0.00000000E+00  0.00000000E+00
  0.00000000E+00  0.00000000E+00  0.00000000E+00
  0.00000000E+00  0.00000000E+00  0.00000000E+00
  0.00000000E+00  0.00000000E+00  0.00000000E+00
  0.00000000E+00  0.00000000E+00  0.00000000E+00
  0.00000000E+00  0.00000000E+00  0.00000000E+00
  0.00000000E+00  0.00000000E+00  0.00000000E+00
  0.00000000E+00  0.00000000E+00  0.00000000E+00
  0.00000000E+00  0.00000000E+00  0.00000000E+00
  0.00000000E+00  0.00000000E+00  0.00000000E+00
  0.00000000E+00  0.00000000E+00  0.00000000E+00
  0.00000000E+00  0.00000000E+00  0.00000000E+00
  0.00000000E+00  0.00000000E+00  0.00000000E+00
  0.00000000E+00  0.00000000E+00  0.00000000E+00
  0.00000000E+00  0.00000000E+00  0.00000000E+00
  0.00000000E+00  0.00000000E+00  0.00000000E+00
  0.00000000E+00  0.00000000E+00  0.00000000E+00
  0.00000000E+00  0.00000000E+00  0.00000000E+00
  0.00000000E+00  0.00000000E+00  0.00000000E+00
  0.00000000E+00  0.00000000E+00  0.00000000E+00
  0.00000000E+00  0.00000000E+00  0.00000000E+00
  0.00000000E+00  0.00000000E+00  0.00000000E+00
  0.00000000E+00  0.00000000E+00  0.00000000E+00
  0.00000000E+00  0.00000000E+00  0.00000000E+00
  0.00000000E+00  0.00000000E+00  0.00000000E+00
  0.00000000E+00  0.00000000E+00  0.00000000E+00
  0.00000000E+00  0.00000000E+00  0.00000000E+00
  0.00000000E+00  0.00000000E+00  0.00000000E+00
  0.00000000E+00  0.00000000E+00  0.00000000E+00
  0.00000000E+00  0.00000000E+00  0.00000000E+00
