# basic parameters and parallel calculation #
  SYSTEM = BN/gr
#  ICHARG = 11
  ISTART = 1
   NCORE = 56
    KPAR = 2

# parameters related with sc-calculation for electron #
  ENCUT  = 400
  PREC   = Accurate
  EDIFF  = 1E-8
  ISMEAR = 0
  SIGMA  = 0.04
  NELMIN = 2 
  NELM   = 100
  NBANDS = 2700   

# parameters related with ions relaxation #
#  IBRION = 2
#  ISIF   = 2 
#  EDIFFG = -0.01           # negative number means force
#  NSW    = 120

# parameters related with output #
  LCHARG = .F.         # For relaxation of large system, .T. should be set to save time
  LWAVE  = .F.

# parameters related with vdW correction #
    IVDW = 11            # 11 for D3 correction(only when PBE employed)
 
# dielectric function
   ALGO = Normal
 LOPTICS = .T.
  CSHIFT = 0.100
   NEDOS = 2500
