Automatic generation
0
G
14   14   1
0.0  0.0  0.0
