B163 C326 N163                          
   1.00000000000000     
    31.4965469999999996    0.0000000000000000    0.0000000000000000
   -15.7482729999999993   27.2768100000000011    0.0000000000000000
     0.0000000000000000    0.0000000000000000   21.0000000000000000
   N    B    C 
   163   163   326
Direct
  0.0531748776510753  0.9161625157207935  0.5000284309977473
  0.0715681857941776  0.8486784842742413  0.5000034455788172
  0.1390706084150907  0.9345586098680915  0.5000022656034879
  0.0899781339749156  0.7811827411129240  0.5000385565719804
  0.1574530188958900  0.8670620870836756  0.5000190208191114
  0.2249497953846745  0.9529686439760878  0.5000349061224936
  0.0408885458416613  0.6277999043931407  0.5000241909360983
  0.1083821970772484  0.7137016355265218  0.5000369230010290
  0.1758777051207533  0.7996021309931511  0.5000178008078690
  0.2433582439649681  0.8854841638761304  0.5000459274214938
  0.3108323313836225  0.9713741327820277  0.4999946251741138
  0.0593115489706258  0.5603411135497197  0.5000129985909431
  0.1267984914898663  0.6462210473697297  0.5000399640811453
  0.1942646518918303  0.7321091764601809  0.5000031605790288
  0.2617654055221492  0.8179894464679437  0.5000023456410335
  0.3292384769573573  0.9038822200112547  0.5000390137967831
  0.0776994527472150  0.4928441932810850  0.5000139793383931
  0.1451964739727784  0.5787240760874106  0.4999965996309200
  0.2126794312455782  0.6646199948627296  0.5000412755162265
  0.2801558035305683  0.7504998732424029  0.5000311713902595
  0.3476469705830175  0.8364070592522296  0.5000334130955481
  0.4151447405338701  0.9223005472527850  0.5000139793383931
  0.0961177799887452  0.4253562569461096  0.5000390137967831
  0.1635929407477703  0.5112399113307878  0.5000334130955481
  0.2310801609745085  0.5971398633274587  0.5000394493262170
  0.2985780769987946  0.6830388222691530  0.5000063753265989
  0.3660597023529502  0.7689198390254914  0.5000394493262170
  0.4335276021146252  0.8548035260272145  0.4999965996309200
  0.5010295645790941  0.9406884510293743  0.5000129985909431
  0.0470313560239121  0.2719811514085866  0.5000349061224936
  0.1145158361238696  0.3578740800888378  0.5000459274214938
  0.1820105535320563  0.4437759590542055  0.5000023456410335
  0.2495001267575972  0.5296549302881680  0.5000311713902595
  0.3169611777308471  0.6155392547296417  0.5000063753265989
  0.3844607452703583  0.7014219230012054  0.5000063753265989
  0.4519405636171515  0.7873205687544218  0.5000412755162265
  0.5194215558798659  0.8732015085101337  0.5000399640811453
  0.5869113585514792  0.9591114541583386  0.5000241909360983
  0.0654413901319085  0.2045119985469921  0.5000022656034879
  0.1329379129163244  0.2903919318122118  0.5000190208191114
  0.2003978690068489  0.3762755741276022  0.5000178008078690
  0.2678908235398191  0.4621554754316494  0.5000031605790288
  0.3353800051372704  0.5480594363828485  0.5000412755162265
  0.4028601366725484  0.6339402976470497  0.5000394493262170
  0.4703450697118319  0.7198441964694315  0.5000311713902595
  0.5378445245683505  0.8057353481081696  0.5000031605790288
  0.6053194384492734  0.8916178029227516  0.5000369230010290
  0.6727914157976236  0.9774981107657886  0.4999942997289237
  0.0838374842792065  0.1370113619302842  0.5000284309977473
  0.1513215157257586  0.2228897015199363  0.5000034455788172
  0.2188172588870760  0.3087943928619941  0.5000385565719804
  0.2862983644734783  0.3946805615507266  0.5000369230010290
  0.3537789526302704  0.4805784441201341  0.5000399640811453
  0.4212759239125894  0.5664723978853750  0.4999965996309200
  0.4887600886692121  0.6523530294169825  0.5000334130955481
  0.5562240409457945  0.7382345944778509  0.5000023456410335
  0.6237244258723977  0.8241222948792466  0.5000178008078690
  0.6912056071380058  0.9100218660250844  0.5000385565719804
  0.0347531104035327  0.9836260494243930  0.5000067228527397
  0.1022515124442479  0.0695304277384289  0.5000350623684628
  0.1697372638863626  0.1554225366056711  0.5000329002083100
  0.2372158912993170  0.2413116361371087  0.5000472451676836
  0.3047066949681650  0.3272085842023764  0.4999942997289237
  0.3722000956068593  0.4130886414485206  0.5000241909360983
  0.4396588864502802  0.4989704354209060  0.5000129985909431
  0.5071558067189149  0.5848552594661299  0.5000139793383931
  0.5746437430538905  0.6707615230426426  0.5000390137967831
  0.6421259199111623  0.7566417560350319  0.5000459274214938
  0.7096080681877881  0.8425469811041100  0.5000190208191114
  0.7771102984800637  0.9284318142058223  0.5000034455788172
  0.1206552545171618  0.0020470929951745  0.5000501639141222
  0.1881371882766053  0.0879438050970592  0.4999966407131578
  0.2556366487363300  0.1738238595817218  0.5000127331574256
  0.3230966538895578  0.2597087388571246  0.5000244898278368
  0.3905870920670367  0.3455899402171330  0.5000134994407478
  0.4580806711247833  0.4314987936766187  0.5000375028268472
  0.5255651484636363  0.5173812688684207  0.5000410491657019
  0.5930424307679851  0.6032809375489848  0.5000287114396493
  0.6605418013984051  0.6891676686163775  0.4999946251741138
  0.7280188485914134  0.7750502046153256  0.5000349061224936
  0.7954880014530079  0.8609293915849093  0.5000022656034879
  0.8629886380697158  0.9468251223489247  0.5000284309977473
  0.2065371070427744  0.0204452770862291  0.5000339114101463
  0.2740193693287360  0.1063240367629160  0.5000154173725632
  0.3415161252790000  0.1922343112059952  0.5000355282430732
  0.4090038778835974  0.2781213470487429  0.5000333909059129
  0.4764791994810076  0.3640141335222436  0.5000386017799761
  0.5439717638324195  0.4499038249608255  0.4999899203396256
  0.6114592868841161  0.5357862419780816  0.5000302366046931
  0.6789225318639148  0.6216667779548581  0.5000109944771466
  0.7464208399171145  0.7075587099222925  0.5000249503536622
  0.8139081700434617  0.7934628929572256  0.5000339114101463
  0.8813918384780126  0.8793447454828381  0.5000501639141222
  0.9488729390208602  0.9652468895964673  0.5000067228527397
  0.2924412900777075  0.0388621299948220  0.5000249503536622
  0.3599179560596522  0.1247495341397925  0.5000451836208669
  0.4274017481665243  0.2106386131429670  0.4999899251296194
  0.4948973907587264  0.2965207437430279  0.5000211283039335
  0.5623596643369917  0.3824051545752634  0.5000217274717067
  0.6298524312189817  0.4682912793330741  0.5000245195556597
  0.6973454540497872  0.5542009878062266  0.5000319836153894
  0.7648315780801404  0.6400820439403478  0.5000451836208669
  0.8323056674341776  0.7259806306712639  0.5000154173725632
  0.8998066168204539  0.8118628117233948  0.4999966407131578
  0.9672779152941834  0.8977484875557521  0.5000350623684628
  0.3783332220451419  0.0572557539090567  0.5000109944771466
  0.4457990121937733  0.1431434662435630  0.5000319836153894
  0.5132848761332096  0.2290260324230112  0.5000262601347706
  0.5807804601469402  0.3149389247274057  0.5000302226437452
  0.6482705540467582  0.4008214313447295  0.5000359097467513
  0.7157401562898040  0.4867151238667903  0.5000262601347706
  0.7832368649764427  0.5725982518334758  0.4999899251296194
  0.8507181859269952  0.6584838747210000  0.5000355282430732
  0.9181872108453847  0.7443633512636699  0.5000127331574256
  0.9856852727193015  0.8302627361136374  0.5000329002083100
  0.3967190624510151  0.9897614932190002  0.5000287114396493
  0.4642137580219184  0.0756730449060345  0.5000302366046931
  0.5317087206669259  0.1615611518859075  0.5000245195556597
  0.5991785686552705  0.2474491227020287  0.5000359097467513
  0.6666669999999968  0.3333330000000032  0.4999875543562085
  0.7341584645804586  0.4192195398530599  0.5000302226437452
  0.8016233529843086  0.5051026092412737  0.5000211283039335
  0.8691174691651454  0.5909961221164025  0.5000333909059129
  0.9366110849675622  0.6769033461104422  0.5000244898278368
  0.0040957448377918  0.7627841087006829  0.5000472451676836
  0.4826187311315793  0.0081838795952157  0.5000410491657019
  0.5500961750391745  0.0940689388715914  0.4999899203396256
  0.6175948454247365  0.1799545097617211  0.5000217274717067
  0.6850610752725943  0.2658415354195415  0.5000302226437452
  0.7525508772979712  0.3517294459532418  0.5000359097467513
  0.8200454902382789  0.4376403356630084  0.5000217274717067
  0.8875359340412406  0.5235208005189923  0.5000386017799761
  0.9550028481501034  0.6094129079329633  0.5000134994407478
  0.0225018892342113  0.6952933050318350  0.4999942997289237
  0.5685012063233813  0.0265818774481645  0.5000375028268472
  0.6359858664777563  0.1124640659587595  0.5000386017799761
  0.7034792562569722  0.1983766470156914  0.5000211283039335
  0.7709739675769888  0.2842598437101960  0.5000262601347706
  0.8384388481140924  0.3701475687810184  0.5000245195556597
  0.9059310611284086  0.4560282361675805  0.4999899203396256
  0.9734181225518356  0.5419193288752167  0.5000375028268472
  0.6544100597828670  0.0449971518498966  0.5000134994407478
  0.7218786529512571  0.1308825308348546  0.5000333909059129
  0.7893613868570331  0.2167631350235572  0.4999899251296194
  0.8568565337564370  0.3026545459502128  0.5000319836153894
  0.9243269550939655  0.3885407131158840  0.5000302366046931
  0.9918161204047843  0.4744348515363636  0.5000410491657019
  0.7402912611428754  0.0633889150324378  0.5000244898278368
  0.8077656887940048  0.1492818140730048  0.5000355282430732
  0.8752504658602076  0.2351684219198597  0.5000451836208669
  0.9427442460909433  0.3210774681360852  0.5000109944771466
  0.0102385067809998  0.4069575692320149  0.5000287114396493
  0.7586883638628913  0.9959042551622082  0.5000472451676836
  0.8261761404182781  0.0818127891546153  0.5000127331574256
  0.8936759632370841  0.1676943325658226  0.5000154173725632
  0.9611378700051780  0.2535791600828855  0.5000249503536622
  0.0286258672179724  0.3394581986015949  0.4999946251741138
  0.8445774633943289  0.0143147272806986  0.5000329002083100
  0.9120561949029409  0.1001933831795460  0.4999966407131578
  0.9795547229137709  0.1860918299565382  0.5000339114101463
  0.9304695722615712  0.0327220847058165  0.5000350623684628
  0.9979529070048254  0.1186081615219874  0.5000501639141222
  0.0163739505756070  0.0511270609791397  0.5000067228527397
  0.0695306453523677  0.9672806887071441  0.4999962189407652
  0.0879359929884906  0.8997989006553355  0.4999771188081308
  0.1554192359169267  0.9856849543988015  0.4999996527759110
  0.1063349577025942  0.8323081852595526  0.4999927082228203
  0.1738263393877865  0.9181986225116002  0.4999878136027069
  0.2413086864176343  0.0040915340524332  0.5000146094260376
  0.0572604599823070  0.6789339189845180  0.4999847861340771
  0.1247452942894981  0.7648276175022036  0.5000132221360140
  0.1922305340946704  0.8507172715349121  0.4999951607370501
  0.2597125195083185  0.9366054094732494  0.4999905072527558
  0.3272001876589675  0.0224971933169080  0.4999746719236031
  0.0756666807853068  0.6114554517032855  0.4999956582451108
  0.1431470166858195  0.6973418417330252  0.4999917271006435
  0.2106343899398110  0.7832326022389069  0.4999715091254272
  0.2781192701157767  0.8691197241429746  0.5000035713046819
  0.3456002401201325  0.9550075374155387  0.4999913839220425
  0.0940690682280522  0.5439678442402012  0.4999714689449523
  0.1615568013109454  0.6298568914524499  0.4999988370887273
  0.2290357039952431  0.7157433889301266  0.5000007634320649
  0.2965246420190156  0.8016336342324051  0.4999904106779297
  0.3640088844945969  0.8875289312249237  0.5000090173320957
  0.4314941090747277  0.9734169807890449  0.4999932381695513
  0.1124710687750763  0.4764809532696777  0.5000090173320957
  0.1799595751473727  0.5623700241166432  0.4999888251256675
  0.2474444936305113  0.6482635531663377  0.5000069607880391
  0.3149307481242334  0.7341542551219823  0.4999923126840868
  0.3824104489692633  0.8200404248526273  0.4999888251256675
  0.4498997760121465  0.9059309317719479  0.4999714689449523
  0.5173819613544606  0.9918191051764296  0.5000095237834599
  0.0633945905267506  0.3231061100350645  0.4999905072527558
  0.1308802758570255  0.4089995459728023  0.5000035713046819
  0.1983663657675949  0.4948910077866177  0.4999904106779297
  0.2658457448780177  0.5807764930022440  0.4999923126840868
  0.3333330000000032  0.6666669999999968  0.4999694879518123
  0.4008190595358265  0.7525555063694888  0.5000069607880391
  0.4683000901415047  0.8384431986890546  0.4999988370887273
  0.5357887709179788  0.9243333192146932  0.4999956582451108
  0.6032729201736441  0.0102288663539878  0.5000019663263191
  0.0818013774883999  0.2556277168761793  0.4999878136027069
  0.1492827284650880  0.3415132625597584  0.4999951607370501
  0.2167673977610931  0.4274017877009041  0.4999715091254272
  0.2842566110698734  0.5132913150651192  0.5000007634320649
  0.3517364468336622  0.5991809404641736  0.5000069607880391
  0.4192235069977560  0.6850692518757665  0.4999923126840868
  0.4867086849348809  0.7709642960047569  0.5000007634320649
  0.5541938250472083  0.8568529833141805  0.4999917271006435
  0.6216734590022110  0.9427395400176929  0.4999847861340771
  0.6891638139088003  0.0286296538165376  0.4999757142978165
  0.1002010993446645  0.1881370923331551  0.4999771188081308
  0.1676918147404473  0.2740277724430389  0.4999927082228203
  0.2351723824977964  0.3599176767872945  0.5000132221360140
  0.3026581582669748  0.4458061749527918  0.4999917271006435
  0.3701431085475499  0.5316999098584954  0.4999988370887273
  0.4376299758833570  0.6175895510307366  0.4999888251256675
  0.5051089922133823  0.7034753579809844  0.4999904106779297
  0.5725982122990959  0.7893656100601890  0.4999715091254272
  0.6400823232127054  0.8752547057105018  0.5000132221360140
  0.7075654071016432  0.9611439872854671  0.4999965722987693
  0.0511271708166583  0.0347631796106392  0.4999851900621424
  0.1186092120088035  0.1206547979238760  0.5000165416146044
  0.1860944813894967  0.2065433516872205  0.4999933768995836
  0.2535785801838238  0.2924345928983568  0.4999965722987693
  0.3210660810154819  0.3783265409977890  0.4999847861340771
  0.3885445482967144  0.4642112290820212  0.4999956582451108
  0.4560321557597988  0.5501002239878535  0.4999714689449523
  0.5235190467303223  0.6359911155054032  0.5000090173320957
  0.5910004540271977  0.7218807298842231  0.5000035713046819
  0.6584867374402416  0.8077694659053296  0.4999951607370501
  0.7259722275569610  0.8936650422974057  0.4999927082228203
  0.7934566483127795  0.9795511297022834  0.4999933768995836
  0.1370133036211183  0.0531703443668012  0.4999945638904732
  0.2045012446614380  0.1390627528331253  0.4999804815964622
  0.2719815465009658  0.2249480406797293  0.4999991478859957
  0.3394658399077372  0.3108361860911996  0.4999757142978165
  0.4069559461803437  0.3967270798263560  0.5000019663263191
  0.4744371438219689  0.4826180386455394  0.5000095237834599
  0.5419228717143173  0.5685058909252723  0.4999932381695513
  0.6094072972953992  0.6543997598798676  0.4999913839220425
  0.6768938899649355  0.7402874804916816  0.4999905072527558
  0.7443722831238206  0.8261736606122135  0.4999878136027069
  0.8118629076668449  0.9120640070115095  0.4999771188081308
  0.8793452020761241  0.9979544140849275  0.5000165416146044
  0.2229000055441704  0.0715709178848329  0.4999833181374402
  0.2903918925558213  0.1574622838312011  0.4999941457693532
  0.3578730223395158  0.2433548623015629  0.5000133723311371
  0.4253579346462991  0.3292424511637518  0.4999931577356297
  0.4928421522963887  0.4151351647439002  0.4999904220265926
  0.5603297170430562  0.5010248336180551  0.4999857179150685
  0.6278072973093394  0.5869101169590923  0.4999952655180382
  0.6952970056579406  0.6727998123410326  0.4999746719236031
  0.7627828476347990  0.7586913135823659  0.5000146094260376
  0.8302657184818818  0.8445807640830733  0.4999996527759110
  0.8977510433547740  0.9304693546476323  0.4999962189407652
  0.9652368203893608  0.0163639912060191  0.4999851900621424
  0.3087940242927512  0.0899805343718151  0.4999941101506258
  0.3762774109545745  0.1758707518773976  0.4999900665399322
  0.4437651366956512  0.2617606647533108  0.4999799243162119
  0.5112446475868176  0.3476463823681796  0.5000012895116958
  0.5787307125814621  0.4335349590398070  0.4999767108219945
  0.6462186670916797  0.5194261814810006  0.5000093447421748
  0.7137017814378344  0.6053183643065244  0.5000043876607990
  0.7811855100790666  0.6912059757072490  0.4999941101506258
  0.8486709123406624  0.7770999944558296  0.4999833181374402
  0.9161560407456855  0.8629866963788817  0.4999945638904732
  0.9836360087939808  0.9488728291833416  0.4999851900621424
  0.3946816356934756  0.1083834171313099  0.5000043876607990
  0.4621649550293813  0.1942711804413669  0.4999827366855062
  0.5296542974529388  0.2801626902023900  0.5000022159194354
  0.5971376352102805  0.3660558050362515  0.5000077750674472
  0.6646215587693755  0.4519420713589636  0.4999933615105926
  0.7321062254119857  0.5378350449706187  0.4999827366855062
  0.7995933409228231  0.6237225890454254  0.4999900665399322
  0.8670713912753772  0.7096081074441788  0.4999941457693532
  0.9345615081716800  0.7954987553385620  0.4999804815964622
  0.0020455859150724  0.8813907879911964  0.5000165416146044
  0.4130898830409075  0.0408971803502469  0.4999952655180382
  0.4805738185189994  0.1267914856106817  0.5000093447421748
  0.5480579286410364  0.2126794874104120  0.4999933615105926
  0.6155403296684316  0.2985698895863884  0.4999835715360743
  0.6830295599179567  0.3844596703315682  0.4999835715360743
  0.7505073927494538  0.4703457025470612  0.5000022159194354
  0.8179955280576597  0.5562348633043488  0.4999799243162119
  0.8854818399620470  0.6421269776604841  0.5000133723311371
  0.9529664941787637  0.7280184534990343  0.4999991478859957
  0.0204488702977166  0.8139055186105033  0.4999933768995836
  0.4989751663819450  0.0593048834250013  0.4999857179150685
  0.5664650409601929  0.1451957535416480  0.4999767108219945
  0.6339441949637484  0.2310818301740291  0.5000077750674472
  0.7014301104136117  0.3169704400820434  0.4999835715360743
  0.7689181698259709  0.4028623647897265  0.5000077750674472
  0.8364017347813620  0.4887553524131825  0.5000012895116958
  0.9038845165174598  0.5746420653537009  0.4999931577356297
  0.9713703461834623  0.6605341600922627  0.4999757142978165
  0.0388560127145330  0.7464214198161760  0.4999965722987693
  0.5848648352560998  0.0777069875524885  0.4999904220265926
  0.6523536176318203  0.1635982652186380  0.5000012895116958
  0.7198373097976100  0.2494926072505463  0.5000022159194354
  0.7873205125895881  0.3353784412306244  0.4999933615105926
  0.8548042464583450  0.4212692874185379  0.4999767108219945
  0.9222930124475114  0.5071578477036113  0.4999904220265926
  0.9897711336460122  0.5930440538196563  0.5000019663263191
  0.6707575488362482  0.0961154834825402  0.4999931577356297
  0.7382393352466891  0.1820044719423403  0.4999799243162119
  0.8057288195586332  0.2678937745880144  0.4999827366855062
  0.8732085143893183  0.3537813329083203  0.5000093447421748
  0.9406951165749987  0.4396702829569437  0.4999857179150685
  0.0081808948235705  0.5255628561780311  0.5000095237834599
  0.7566451376984370  0.1145181600379529  0.5000133723311371
  0.8241292481226024  0.2004066590771769  0.4999900665399322
  0.8916165828686901  0.2862982185621658  0.5000043876607990
  0.9591028196497531  0.3721927026906607  0.4999952655180382
  0.0265830192109550  0.4580771282856827  0.4999932381695513
  0.7750519593202706  0.0470335058212364  0.4999991478859957
  0.8425377161687989  0.1329286087246227  0.4999941457693532
  0.9100194656281849  0.2188144899209334  0.4999941101506258
  0.9775028066830920  0.3047029943420594  0.4999746719236031
  0.0449924625844612  0.3905927027046008  0.4999913839220425
  0.8609372471668747  0.0654384918283199  0.4999804815964622
  0.9284290821151672  0.1513290876593376  0.4999833181374402
  0.9959084659475669  0.2372171523652011  0.5000146094260376
  0.9468296556331988  0.0838439592543146  0.4999945638904732
  0.0143150456011985  0.1697342815181181  0.4999996527759110
  0.0327193112928559  0.1022489566452261  0.4999962189407652
  0.0122659832099547  0.7239263636912536  0.3333306681217849
  0.0306758985525891  0.8098157477143153  0.3333246056848454
  0.0490745501843185  0.8956946806360422  0.3333210485042056
  0.0674873199853835  0.9815961062650038  0.3333240999038073
  0.0061305244107628  0.3619622682717645  0.3333376887615513
  0.0245416737818511  0.4478542763777233  0.3333226289209530
  0.0429391651951595  0.5337330805256254  0.3333234833116258
  0.0613514839029684  0.6196279245886078  0.3333205776415469
  0.0797495798236011  0.7055242604128850  0.3333253403476119
  0.0981663252041856  0.7914159801487939  0.3333101784150846
  0.1165677340735368  0.8773037334074005  0.3333395456138489
  0.1349675160854989  0.9631930902699190  0.3333261846605688
  0.0000000000000000  0.0000000000000000  0.3333406122144007
  0.0184038937349961  0.0858912137203796  0.3333240999038073
  0.0368069097300811  0.1717744258155799  0.3333261846605688
  0.0552130914395935  0.2576600521427621  0.3333196685067943
  0.0736191501744014  0.3435611805533846  0.3333271959932247
  0.0920230138279239  0.4294514212508619  0.3333084119965607
  0.1104384941734760  0.5153418960225720  0.3333319191344722
  0.1288301266238764  0.6012282708634594  0.3333337483405651
  0.1472425116903598  0.6871190406930545  0.3333240988513137
  0.1656385710604691  0.7729958748814091  0.3333255749835264
  0.1840505657924293  0.8588935481675282  0.3333224505290102
  0.2024469607031686  0.9447869085604066  0.3333196685067943
  0.0858833966142191  0.0674877977956946  0.3333166533805805
  0.1043053193639578  0.1533798695482762  0.3333210485042056
  0.1226962665925994  0.2392650006661408  0.3333395456138489
  0.1411064518324719  0.3251570176249012  0.3333224505290102
  0.1595064139596895  0.4110360918398993  0.3333281833637907
  0.1779130419602632  0.4969260541647390  0.3333216952652319
  0.1963151782260288  0.5828242822100700  0.3333253701604747
  0.2147258898626039  0.6687138526962325  0.3333061946313163
  0.2331350865311641  0.7546053605022240  0.3333353860436223
  0.2515296778802097  0.8404935860403104  0.3333281833637907
  0.2699430303789807  0.9263808498255987  0.3333271959932247
  0.1533750777428383  0.0490776854056444  0.3333279165148607
  0.1717752740428070  0.1349592867730320  0.3333237208907042
  0.1901842522856847  0.2208601508382667  0.3333246056848454
  0.2085840198512061  0.3067493450553871  0.3333101784150846
  0.2270041251185909  0.3926426961790601  0.3333255749835264
  0.2453946394977759  0.4785297260289400  0.3333353860436223
  0.2638079701544321  0.5644214658314161  0.3333223225944250
  0.2822041695644241  0.6502977869826115  0.3333301920648626
  0.3006134956769841  0.7361920298455679  0.3333223225944250
  0.3190120122044783  0.8220869580397367  0.3333216952652319
  0.3374284074229381  0.9079769861720761  0.3333084119965607
  0.3558317438610017  0.9938694755892371  0.3333376887615513
  0.2208667985690919  0.0306784835034146  0.3333134536318256
  0.2392638142352065  0.1165665844275888  0.3333397149197019
  0.2576695309516561  0.2024588042819124  0.3333219066831161
  0.2760736363087464  0.2883396195187011  0.3333306681217849
  0.2944757395871149  0.3742243194107115  0.3333253403476119
  0.3128809593069455  0.4601244709973099  0.3333240988513137
  0.3312861473037675  0.5460120371663714  0.3333061946313163
  0.3497022130173884  0.6319063825818054  0.3333301920648626
  0.3680936174181946  0.7177958304355759  0.3333301920648626
  0.3865091039840411  0.8036848217739713  0.3333253701604747
  0.4049034018490960  0.8895615058265240  0.3333319191344722
  0.4233126025958722  0.9754583262181489  0.3333226289209530
  0.2883383760934837  0.0122598286275475  0.3333274760629650
  0.3067488175749395  0.0981595310580288  0.3333230946468952
  0.3251465680019057  0.1840486936443914  0.3333141961674141
  0.3435677017614163  0.2699427760904754  0.3333185475754142
  0.3619612034602172  0.3558324030700062  0.3333369177405024
  0.3803720754113922  0.4417235593143677  0.3333205776415469
  0.3987717291365405  0.5276018557604241  0.3333337483405651
  0.4171757177899301  0.6134908960159590  0.3333253701604747
  0.4355785341685839  0.6993865043230159  0.3333223225944250
  0.4539879628336286  0.7852741101373961  0.3333061946313163
  0.4723981442395759  0.8711698733761236  0.3333337483405651
  0.4907949153304705  0.9570608348048405  0.3333234833116258
  0.3742318974313784  0.0797606146527002  0.3333228043021456
  0.3926421359621115  0.1656440682012572  0.3333311852635169
  0.4110378699219196  0.2515243300430947  0.3333292925743627
  0.4294470545182822  0.3374237594954894  0.3333235556027702
  0.4478469343023951  0.4233097802497786  0.3333094220010852
  0.4662669194743745  0.5092050846695295  0.3333234833116258
  0.4846581039774280  0.5950965981509041  0.3333319191344722
  0.5030739458352610  0.6809879877955216  0.3333216952652319
  0.5214702739710599  0.7668649134688359  0.3333353860436223
  0.5398755290026902  0.8527574883096403  0.3333240988513137
  0.5582764406856322  0.9386485160970315  0.3333205776415469
  0.4417098075625284  0.0613473626541260  0.3333179375046894
  0.4601299453317028  0.1472394668452492  0.3333126381475272
  0.4785270240322876  0.2331334877474502  0.3333365087929555
  0.4969347244951415  0.3190245028478920  0.3333185863646479
  0.5153403299549723  0.4049058337237685  0.3333348176386593
  0.5337379827033716  0.4907913902077250  0.3333288923753686
  0.5521457236222768  0.5766873974041278  0.3333226289209530
  0.5705485787491381  0.6625715925770619  0.3333084119965607
  0.5889639081601008  0.7484703221197903  0.3333281833637907
  0.6073573038209399  0.8343614289395309  0.3333255749835264
  0.6257756805892885  0.9202504201763989  0.3333253403476119
  0.5092086097922750  0.0429475924956513  0.3333288923753686
  0.5276020694034504  0.1288255735129228  0.3333332844422649
  0.5460124109094326  0.2147236753392478  0.3333228153020585
  0.5644100811569330  0.3006094493050454  0.3333140611345266
  0.5828297554948374  0.3865036353595906  0.3333179979267183
  0.6012235041094796  0.4723979305965497  0.3333332844422649
  0.6196375550916047  0.5582901924374717  0.3333179375046894
  0.6380377317282354  0.6441682561389983  0.3333376887615513
  0.6564388194466154  0.7300569696210193  0.3333271959932247
  0.6748429823750988  0.8159494342075707  0.3333224505290102
  0.6932506549446129  0.9018336747958144  0.3333101784150846
  0.7116603804812989  0.9877340167900452  0.3333306681217849
  0.5766902197502215  0.0245371540526165  0.3333094220010852
  0.5950941662762315  0.1104344962312038  0.3333348176386593
  0.6134963646404094  0.1963261201352468  0.3333179979267183
  0.6319081689131543  0.2822100038028328  0.3333333292221133
  0.6503018348896713  0.3680918310868456  0.3333333292221133
  0.6687112644298151  0.4539875890905673  0.3333228153020585
  0.6871105215135510  0.5398700546682972  0.3333126381475272
  0.7055277172213172  0.6257681025686216  0.3333228043021456
  0.7239214525340637  0.7116616239065163  0.3333274760629650
  0.7423399478572379  0.7975530392968314  0.3333196685067943
  0.7607349993338592  0.8834322659264633  0.3333395456138489
  0.7791398491617333  0.9693241014474109  0.3333246056848454
  0.6441675969299938  0.0061288003902111  0.3333369177405024
  0.6625762405045106  0.0920232950227929  0.3333235556027702
  0.6809754971521080  0.1779092216472520  0.3333185863646479
  0.6993905506949545  0.2638006318518876  0.3333140611345266
  0.7177899961971673  0.3496981651103287  0.3333333292221133
  0.7361993681481125  0.4355899188430670  0.3333140611345266
  0.7546064637151626  0.5214729759677124  0.3333365087929555
  0.7730019322391457  0.6073578640378885  0.3333311852635169
  0.7914097134830848  0.6932511824250606  0.3333230946468952
  0.8098116849343157  0.7791332014309080  0.3333134536318256
  0.8282255741844200  0.8650324839145010  0.3333261846605688
  0.8466201304517238  0.9509254498156744  0.3333210485042056
  0.7300572239095247  0.0736259256709384  0.3333185475754142
  0.7484756699569053  0.1595135398788249  0.3333292925743627
  0.7668665122525498  0.2453935362848375  0.3333365087929555
  0.7852763246607523  0.3312887355701848  0.3333228153020585
  0.8036738798647531  0.4171702445051625  0.3333179979267183
  0.8220907783527480  0.5030652755048586  0.3333185863646479
  0.8404864601211751  0.5889621300780804  0.3333292925743627
  0.8589021256424857  0.6748534319980942  0.3333141961674141
  0.8773037701923869  0.7607361857647935  0.3333397149197019
  0.8957026076628061  0.8466249222571617  0.3333279165148607
  0.9141087862796203  0.9325126800146165  0.3333240999038073
  0.7975411957180876  0.0552107266697437  0.3333219066831161
  0.8159513063556086  0.1410978743575143  0.3333141961674141
  0.8343559317987427  0.2269980677608543  0.3333311852635169
  0.8527605331547509  0.3128894784864490  0.3333126381475272
  0.8711744264870772  0.3987764958905205  0.3333332844422649
  0.8895655037687962  0.4846596700450277  0.3333348176386593
  0.9079767049772072  0.5705529454817178  0.3333235556027702
  0.9263740743290617  0.6564322982385837  0.3333185475754142
  0.9447892733302562  0.7423304690483439  0.3333219066831161
  0.9631840127302249  0.8282247259571930  0.3333237208907042
  0.9816044011814755  0.9141166033857809  0.3333166533805805
  0.8650407132269681  0.0368159872697751  0.3333237208907042
  0.8834334155724113  0.1226962298076131  0.3333397149197019
  0.9018404689419712  0.2085902865169153  0.3333230946468952
  0.9202393853472997  0.2944722827786827  0.3333228043021456
  0.9386526373458740  0.3803624449083952  0.3333179375046894
  0.9570524075043485  0.4662620172966283  0.3333288923753686
  0.9754628459473835  0.5521530656976049  0.3333094220010852
  0.9938711996097889  0.6380387965397829  0.3333369177405024
  0.9325122022043053  0.0183955988185245  0.3333166533805805