Automatic generation
0
G
98  98  1
0.0 0.0 0.0
