Automatic generation
0
G
24  24  1
0.0 0.0 0.0
