21-degree-smallest-config               
   1.00000000000000     
     6.5275182621000001    0.0000000000000000    0.0000000000000000
    -3.2637595517000002    5.6529973650000001    0.0000000000000000
     0.0000000000000000    0.0000000000000000   23.5000000000000000
   N    B    C 
     7     7    14
Direct
  0.1904824687049701  0.9523395911045573  0.5038563101400293
  0.3333329940000027  0.6666670210000021  0.5039238082002451
  0.4761480962459171  0.3808742246686680  0.5036263946406880
  0.6191257803313357  0.0952738875772575  0.5036263946406880
  0.7618571753995879  0.8095175672950331  0.5038563101400293
  0.9047261604227465  0.5238519617540809  0.5036263946406880
  0.0476604418954419  0.2381428826004097  0.5038563101400293
  0.2380846951888009  0.1904623795934186  0.5037647185787586
  0.3809719913679995  0.9047572093720382  0.5037829965816071
  0.5237851910040329  0.6190280666319975  0.5037829965816071
  0.6666670159999981  0.3333330000000032  0.5035476008963915
  0.8095376594065811  0.0476223235953828  0.5037647185787586
  0.9523776764046172  0.7619153968111999  0.5037647185787586
  0.0952428996279670  0.4762148509959705  0.5037829965816071
  0.1904971479749297  0.2380943945648096  0.3542213970166650
  0.4761674139844229  0.0952255403226145  0.3542825888972072
  0.7619056844351862  0.9524027864101194  0.3542213970166650
  0.0475972705898820  0.8095028600250709  0.3542213970166650
  0.3333329940000027  0.6666670210000021  0.3542074396970951
  0.6190581463381861  0.5238326540155755  0.3542825888972072
  0.9047745126773861  0.3809418796618161  0.3542825888972072
  0.2381068944187381  0.0476422296932505  0.3542188032274411
  0.5238090586105209  0.9047473560588589  0.3542446020823384
  0.8095353582745178  0.7618932025812664  0.3542188032274411
  0.0952527659411439  0.6190617605516667  0.3542446020823384
  0.3809382574483346  0.4761910103894810  0.3542446020823384
  0.6666670159999981  0.3333330000000032  0.3543277177120226
  0.9523577233067492  0.1904646677254841  0.3542188032274411
 
  0.00000000E+00  0.00000000E+00  0.00000000E+00
  0.00000000E+00  0.00000000E+00  0.00000000E+00
  0.00000000E+00  0.00000000E+00  0.00000000E+00
  0.00000000E+00  0.00000000E+00  0.00000000E+00
  0.00000000E+00  0.00000000E+00  0.00000000E+00
  0.00000000E+00  0.00000000E+00  0.00000000E+00
  0.00000000E+00  0.00000000E+00  0.00000000E+00
  0.00000000E+00  0.00000000E+00  0.00000000E+00
  0.00000000E+00  0.00000000E+00  0.00000000E+00
  0.00000000E+00  0.00000000E+00  0.00000000E+00
  0.00000000E+00  0.00000000E+00  0.00000000E+00
  0.00000000E+00  0.00000000E+00  0.00000000E+00
  0.00000000E+00  0.00000000E+00  0.00000000E+00
  0.00000000E+00  0.00000000E+00  0.00000000E+00
  0.00000000E+00  0.00000000E+00  0.00000000E+00
  0.00000000E+00  0.00000000E+00  0.00000000E+00
  0.00000000E+00  0.00000000E+00  0.00000000E+00
  0.00000000E+00  0.00000000E+00  0.00000000E+00
  0.00000000E+00  0.00000000E+00  0.00000000E+00
  0.00000000E+00  0.00000000E+00  0.00000000E+00
  0.00000000E+00  0.00000000E+00  0.00000000E+00
  0.00000000E+00  0.00000000E+00  0.00000000E+00
  0.00000000E+00  0.00000000E+00  0.00000000E+00
  0.00000000E+00  0.00000000E+00  0.00000000E+00
  0.00000000E+00  0.00000000E+00  0.00000000E+00
  0.00000000E+00  0.00000000E+00  0.00000000E+00
  0.00000000E+00  0.00000000E+00  0.00000000E+00
  0.00000000E+00  0.00000000E+00  0.00000000E+00
